135 5
10 10 10 10 10 

0 0 0 0 0 0 2 2 14 
0 0 0 0 0 0 6 3 4 5 7 8 12 
1 0 0 0 0 10 2 11 9 
4 0 0 0 0 10 2 10 9 
9 0 0 0 0 8 1 6 
6 0 0 0 0 7 2 9 34 
10 0 0 0 0 7 1 11 
5 0 0 0 0 10 1 10 
6 0 0 0 0 2 1 13 
2 0 0 0 0 10 1 13 
7 0 0 0 0 4 1 13 
5 0 0 0 0 7 1 13 
0 0 0 0 0 0 1 26 
0 0 0 0 0 0 5 15 16 17 20 24 
6 0 2 0 0 0 2 19 18 
6 0 2 0 0 0 2 21 18 
1 0 10 0 0 0 3 23 21 62 
10 0 10 0 0 0 1 22 
7 0 8 0 0 0 1 21 
10 0 10 0 0 0 1 21 
3 0 7 0 0 0 1 25 
4 0 8 0 0 0 1 25 
6 0 8 0 0 0 1 25 
10 0 10 0 0 0 1 25 
0 0 0 0 0 0 1 26 
0 0 0 0 0 0 2 27 39 
0 0 0 0 0 0 3 28 29 33 
10 0 4 0 0 0 4 32 31 30 48 
5 0 7 0 0 0 3 37 32 31 
2 0 10 0 0 0 4 37 36 35 34 
7 0 7 0 0 0 2 36 34 
4 0 10 0 0 0 2 35 34 
10 0 9 0 0 0 2 35 34 
3 0 4 0 0 0 1 38 
5 0 5 0 0 0 1 38 
3 0 9 0 0 0 1 38 
8 0 10 0 0 0 1 38 
0 0 0 0 0 0 1 51 
0 0 0 0 0 0 3 40 41 49 
4 0 2 0 0 0 4 48 47 43 42 
7 0 10 0 0 0 2 43 42 
9 0 6 0 0 0 3 46 45 44 
5 0 8 0 0 0 1 44 
3 0 9 0 0 0 1 50 
3 0 4 0 0 0 1 50 
10 0 7 0 0 0 1 50 
9 0 10 0 0 0 1 50 
3 0 9 0 0 0 2 50 130 
3 0 10 0 0 0 1 50 
0 0 0 0 0 0 1 51 
0 0 0 0 0 0 2 52 64 
0 0 0 0 0 0 6 53 54 56 57 58 59 
3 0 5 0 0 0 2 60 55 
7 0 9 0 0 0 2 62 60 
7 0 6 0 0 0 1 61 
7 0 7 0 0 0 1 61 
10 0 4 0 0 0 1 61 
6 0 8 0 0 0 1 60 
7 0 10 0 0 0 1 60 
10 0 6 0 0 0 2 63 133 
2 0 10 0 0 0 1 63 
5 0 10 0 0 0 1 63 
0 0 0 0 0 0 1 76 
0 0 0 0 0 0 5 65 66 67 69 74 
8 0 0 5 0 0 3 73 72 68 
4 0 0 10 0 0 3 72 71 70 
6 0 0 7 0 0 2 71 70 
9 0 0 7 0 0 1 70 
3 0 0 6 0 0 1 70 
2 0 0 10 0 0 1 75 
8 0 0 6 0 0 2 75 78 
8 0 0 9 0 0 1 75 
6 0 0 5 0 0 1 75 
9 0 0 10 0 0 1 75 
0 0 0 0 0 0 1 76 
0 0 0 0 0 0 2 77 89 
0 0 0 0 0 0 7 78 79 80 82 86 87 120 
4 0 4 0 0 0 3 85 84 81 
7 0 4 0 0 0 2 84 81 
2 0 6 0 0 0 2 84 81 
1 0 10 0 0 0 1 83 
5 0 10 0 0 0 1 85 
5 0 6 0 0 0 1 88 
1 0 10 0 0 0 1 88 
5 0 9 0 0 0 1 88 
10 0 6 0 0 0 1 88 
7 0 10 0 0 0 1 88 
0 0 0 0 0 0 2 111 123 
0 0 0 0 0 0 8 90 91 92 93 94 96 100 109 
4 3 0 0 4 0 4 107 106 105 95 
5 7 0 0 10 0 5 108 107 106 102 98 
3 10 0 0 10 0 5 107 105 102 97 127 
1 7 0 0 8 0 4 106 105 102 99 
7 4 0 0 9 0 4 106 105 102 98 
4 7 0 0 3 0 4 108 104 102 101 
1 5 0 0 9 0 4 107 106 105 103 
7 8 0 0 5 0 1 98 
1 6 0 0 8 0 2 104 101 
1 7 0 0 10 0 2 104 101 
6 7 0 0 8 0 2 104 101 
4 7 0 0 5 0 1 103 
9 10 0 0 9 0 1 103 
8 10 0 0 4 0 1 110 
7 8 0 0 6 0 1 110 
10 10 0 0 10 0 1 110 
2 9 0 0 8 0 1 110 
10 10 0 0 8 0 1 110 
1 9 0 0 9 0 1 110 
9 6 0 0 7 0 1 110 
0 0 0 0 0 0 1 135 
0 0 0 0 0 0 2 112 113 
6 2 0 0 0 0 5 121 118 116 115 114 
7 8 0 0 0 0 4 117 116 115 114 
3 7 0 0 0 0 3 120 119 131 
2 5 0 0 0 0 1 120 
8 10 0 0 0 0 1 119 
10 10 0 0 0 0 1 120 
4 10 0 0 0 0 1 119 
8 7 0 0 0 0 1 122 
3 10 0 0 0 0 1 122 
4 6 0 0 0 0 1 122 
0 0 0 0 0 0 1 135 
0 0 0 0 0 0 6 124 126 127 129 132 133 
6 0 0 0 0 3 1 125 
8 0 0 0 0 9 2 131 130 
10 0 0 0 0 5 1 128 
6 0 0 0 0 10 1 128 
1 0 0 0 0 10 1 130 
5 0 0 0 0 6 1 130 
8 0 0 0 0 4 1 134 
7 0 0 0 0 10 1 134 
10 0 0 0 0 10 1 134 
8 0 0 0 0 8 1 134 
0 0 0 0 0 0 1 135 
0 0 0 0 0 0 0 
